c Standarized MaxSat Instance
c{
c "sha1sum": "dbb3fbc6523ab440b465b4d9f56cdf83de049d63",
c "nvars": 140,
c "ncls": 1258,
c "nhards": 0,
c "nhard_len_stats":
c    { "min": 0, "max": 0, "ave": 0.00,
c      "stddev": 0.00 },
c "nsofts": 1258,
c "nsoft_len_stats":
c    { "min": 2, "max": 2, "ave": 2.00,
c      "stddev": 0.00 },
c "nsoft_wts": 1,
c "soft_wt_stats":
c    { "min": 1, "max": 1, "ave": 1.00,
c      "stddev": 0.00 }
c}
c------------------------------------------------------------
c strEdges: 125  randomEdges: 504 
c degrees:  1  2 
c girth: Inf max: -43.604516  
c Hgirth mixed MAXCUT instance
c generated from an undirected graph
c to solve unweighted MaxCut
p wcnf 140 1258 1259
1 94 54 0
1 -94 -54 0
1 40 51 0
1 -40 -51 0
1 40 23 0
1 -40 -23 0
1 29 104 0
1 -29 -104 0
1 29 50 0
1 -29 -50 0
1 89 99 0
1 -89 -99 0
1 89 47 0
1 -89 -47 0
1 78 1 0
1 -78 -1 0
1 78 111 0
1 -78 -111 0
1 66 37 0
1 -66 -37 0
1 12 77 0
1 -12 -77 0
1 12 91 0
1 -12 -91 0
1 124 83 0
1 -124 -83 0
1 124 43 0
1 -124 -43 0
1 7 43 0
1 -7 -43 0
1 7 28 0
1 -7 -28 0
1 134 97 0
1 -134 -97 0
1 134 129 0
1 -134 -129 0
1 106 14 0
1 -106 -14 0
1 106 52 0
1 -106 -52 0
1 88 87 0
1 -88 -87 0
1 88 54 0
1 -88 -54 0
1 46 68 0
1 -46 -68 0
1 46 42 0
1 -46 -42 0
1 79 36 0
1 -79 -36 0
1 79 19 0
1 -79 -19 0
1 10 125 0
1 -10 -125 0
1 10 1 0
1 -10 -1 0
1 140 129 0
1 -140 -129 0
1 60 90 0
1 -60 -90 0
1 60 109 0
1 -60 -109 0
1 93 3 0
1 -93 -3 0
1 93 90 0
1 -93 -90 0
1 5 118 0
1 -5 -118 0
1 5 55 0
1 -5 -55 0
1 130 30 0
1 -130 -30 0
1 130 18 0
1 -130 -18 0
1 108 110 0
1 -108 -110 0
1 108 16 0
1 -108 -16 0
1 117 116 0
1 -117 -116 0
1 117 99 0
1 -117 -99 0
1 59 22 0
1 -59 -22 0
1 59 116 0
1 -59 -116 0
1 57 76 0
1 -57 -76 0
1 57 41 0
1 -57 -41 0
1 127 126 0
1 -127 -126 0
1 127 9 0
1 -127 -9 0
1 138 136 0
1 -138 -136 0
1 138 87 0
1 -138 -87 0
1 135 26 0
1 -135 -26 0
1 135 64 0
1 -135 -64 0
1 107 41 0
1 -107 -41 0
1 107 3 0
1 -107 -3 0
1 71 91 0
1 -71 -91 0
1 71 36 0
1 -71 -36 0
1 74 45 0
1 -74 -45 0
1 74 51 0
1 -74 -51 0
1 95 13 0
1 -95 -13 0
1 95 38 0
1 -95 -38 0
1 113 131 0
1 -113 -131 0
1 113 61 0
1 -113 -61 0
1 80 19 0
1 -80 -19 0
1 80 44 0
1 -80 -44 0
1 139 132 0
1 -139 -132 0
1 112 44 0
1 -112 -44 0
1 112 27 0
1 -112 -27 0
1 48 9 0
1 -48 -9 0
1 24 61 0
1 -24 -61 0
1 24 35 0
1 -24 -35 0
1 119 64 0
1 -119 -64 0
1 119 97 0
1 -119 -97 0
1 75 32 0
1 -75 -32 0
1 75 37 0
1 -75 -37 0
1 62 102 0
1 -62 -102 0
1 62 34 0
1 -62 -34 0
1 53 55 0
1 -53 -55 0
1 58 109 0
1 -58 -109 0
1 58 83 0
1 -58 -83 0
1 63 133 0
1 -63 -133 0
1 92 111 0
1 -92 -111 0
1 92 137 0
1 -92 -137 0
1 33 84 0
1 -33 -84 0
1 6 16 0
1 -6 -16 0
1 81 23 0
1 -81 -23 0
1 81 39 0
1 -81 -39 0
1 98 35 0
1 -98 -35 0
1 98 15 0
1 -98 -15 0
1 67 38 0
1 -67 -38 0
1 67 126 0
1 -67 -126 0
1 100 120 0
1 -100 -120 0
1 72 73 0
1 -72 -73 0
1 72 4 0
1 -72 -4 0
1 121 42 0
1 -121 -42 0
1 115 96 0
1 -115 -96 0
1 115 22 0
1 -115 -22 0
1 69 28 0
1 -69 -28 0
1 69 68 0
1 -69 -68 0
1 101 8 0
1 -101 -8 0
1 101 132 0
1 -101 -132 0
1 21 4 0
1 -21 -4 0
1 65 50 0
1 -65 -50 0
1 65 102 0
1 -65 -102 0
1 103 39 0
1 -103 -39 0
1 103 118 0
1 -103 -118 0
1 25 31 0
1 -25 -31 0
1 122 47 0
1 -122 -47 0
1 122 120 0
1 -122 -120 0
1 2 18 0
1 -2 -18 0
1 2 32 0
1 -2 -32 0
1 85 27 0
1 -85 -27 0
1 85 133 0
1 -85 -133 0
1 86 15 0
1 -86 -15 0
1 86 104 0
1 -86 -104 0
1 105 20 0
1 -105 -20 0
1 128 123 0
1 -128 -123 0
1 128 136 0
1 -128 -136 0
1 11 17 0
1 -11 -17 0
1 11 30 0
1 -11 -30 0
1 56 70 0
1 -56 -70 0
1 49 137 0
1 -49 -137 0
1 49 110 0
1 -49 -110 0
1 82 52 0
1 -82 -52 0
1 82 125 0
1 -82 -125 0
1 114 34 0
1 -114 -34 0
1 114 17 0
1 -114 -17 0
1 46 90 0
1 -46 -90 0
1 127 22 0
1 -127 -22 0
1 7 22 0
1 -7 -22 0
1 63 126 0
1 -63 -126 0
1 46 51 0
1 -46 -51 0
1 71 109 0
1 -71 -109 0
1 77 68 0
1 -77 -68 0
1 139 43 0
1 -139 -43 0
1 58 103 0
1 -58 -103 0
1 53 118 0
1 -53 -118 0
1 92 64 0
1 -92 -64 0
1 128 90 0
1 -128 -90 0
1 82 77 0
1 -82 -77 0
1 107 67 0
1 -107 -67 0
1 106 31 0
1 -106 -31 0
1 66 32 0
1 -66 -32 0
1 79 128 0
1 -79 -128 0
1 120 39 0
1 -120 -39 0
1 106 84 0
1 -106 -84 0
1 122 118 0
1 -122 -118 0
1 65 26 0
1 -65 -26 0
1 114 50 0
1 -114 -50 0
1 119 58 0
1 -119 -58 0
1 135 13 0
1 -135 -13 0
1 135 77 0
1 -135 -77 0
1 66 110 0
1 -66 -110 0
1 124 139 0
1 -124 -139 0
1 103 4 0
1 -103 -4 0
1 124 88 0
1 -124 -88 0
1 74 114 0
1 -74 -114 0
1 54 43 0
1 -54 -43 0
1 10 77 0
1 -10 -77 0
1 21 50 0
1 -21 -50 0
1 134 52 0
1 -134 -52 0
1 124 13 0
1 -124 -13 0
1 106 118 0
1 -106 -118 0
1 91 32 0
1 -91 -32 0
1 7 71 0
1 -7 -71 0
1 115 45 0
1 -115 -45 0
1 23 8 0
1 -23 -8 0
1 94 28 0
1 -94 -28 0
1 115 42 0
1 -115 -42 0
1 49 118 0
1 -49 -118 0
1 124 56 0
1 -124 -56 0
1 83 123 0
1 -83 -123 0
1 130 3 0
1 -130 -3 0
1 29 102 0
1 -29 -102 0
1 86 54 0
1 -86 -54 0
1 19 31 0
1 -19 -31 0
1 57 37 0
1 -57 -37 0
1 19 39 0
1 -19 -39 0
1 106 57 0
1 -106 -57 0
1 46 139 0
1 -46 -139 0
1 86 27 0
1 -86 -27 0
1 127 43 0
1 -127 -43 0
1 13 38 0
1 -13 -38 0
1 2 56 0
1 -2 -56 0
1 61 47 0
1 -61 -47 0
1 140 20 0
1 -140 -20 0
1 33 114 0
1 -33 -114 0
1 5 2 0
1 -5 -2 0
1 94 87 0
1 -94 -87 0
1 72 50 0
1 -72 -50 0
1 78 93 0
1 -78 -93 0
1 86 9 0
1 -86 -9 0
1 127 47 0
1 -127 -47 0
1 56 120 0
1 -56 -120 0
1 122 56 0
1 -122 -56 0
1 96 15 0
1 -96 -15 0
1 24 115 0
1 -24 -115 0
1 129 19 0
1 -129 -19 0
1 134 19 0
1 -134 -19 0
1 121 87 0
1 -121 -87 0
1 69 25 0
1 -69 -25 0
1 14 96 0
1 -14 -96 0
1 119 13 0
1 -119 -13 0
1 23 50 0
1 -23 -50 0
1 107 72 0
1 -107 -72 0
1 86 61 0
1 -86 -61 0
1 42 17 0
1 -42 -17 0
1 14 28 0
1 -14 -28 0
1 56 50 0
1 -56 -50 0
1 114 51 0
1 -114 -51 0
1 95 50 0
1 -95 -50 0
1 119 76 0
1 -119 -76 0
1 95 73 0
1 -95 -73 0
1 41 123 0
1 -41 -123 0
1 63 64 0
1 -63 -64 0
1 126 137 0
1 -126 -137 0
1 21 25 0
1 -21 -25 0
1 49 28 0
1 -49 -28 0
1 121 31 0
1 -121 -31 0
1 79 114 0
1 -79 -114 0
1 48 36 0
1 -48 -36 0
1 100 28 0
1 -100 -28 0
1 95 64 0
1 -95 -64 0
1 119 120 0
1 -119 -120 0
1 12 102 0
1 -12 -102 0
1 113 65 0
1 -113 -65 0
1 89 60 0
1 -89 -60 0
1 139 6 0
1 -139 -6 0
1 106 114 0
1 -106 -114 0
1 113 9 0
1 -113 -9 0
1 12 113 0
1 -12 -113 0
1 80 21 0
1 -80 -21 0
1 107 85 0
1 -107 -85 0
1 74 82 0
1 -74 -82 0
1 65 123 0
1 -65 -123 0
1 88 5 0
1 -88 -5 0
1 107 53 0
1 -107 -53 0
1 40 112 0
1 -40 -112 0
1 124 76 0
1 -124 -76 0
1 29 131 0
1 -29 -131 0
1 134 27 0
1 -134 -27 0
1 139 73 0
1 -139 -73 0
1 138 70 0
1 -138 -70 0
1 10 90 0
1 -10 -90 0
1 2 97 0
1 -2 -97 0
1 51 43 0
1 -51 -43 0
1 134 132 0
1 -134 -132 0
1 80 35 0
1 -80 -35 0
1 100 37 0
1 -100 -37 0
1 106 45 0
1 -106 -45 0
1 124 6 0
1 -124 -6 0
1 6 103 0
1 -6 -103 0
1 7 131 0
1 -7 -131 0
1 29 129 0
1 -29 -129 0
1 42 27 0
1 -42 -27 0
1 76 109 0
1 -76 -109 0
1 12 131 0
1 -12 -131 0
1 11 133 0
1 -11 -133 0
1 127 55 0
1 -127 -55 0
1 79 4 0
1 -79 -4 0
1 86 4 0
1 -86 -4 0
1 53 73 0
1 -53 -73 0
1 131 64 0
1 -131 -64 0
1 60 26 0
1 -60 -26 0
1 40 139 0
1 -40 -139 0
1 82 9 0
1 -82 -9 0
1 98 13 0
1 -98 -13 0
1 108 61 0
1 -108 -61 0
1 77 83 0
1 -77 -83 0
1 138 26 0
1 -138 -26 0
1 57 85 0
1 -57 -85 0
1 90 52 0
1 -90 -52 0
1 93 58 0
1 -93 -58 0
1 2 13 0
1 -2 -13 0
1 67 69 0
1 -67 -69 0
1 29 58 0
1 -29 -58 0
1 79 117 0
1 -79 -117 0
1 74 20 0
1 -74 -20 0
1 66 123 0
1 -66 -123 0
1 117 77 0
1 -117 -77 0
1 139 92 0
1 -139 -92 0
1 106 76 0
1 -106 -76 0
1 124 70 0
1 -124 -70 0
1 108 102 0
1 -108 -102 0
1 81 52 0
1 -81 -52 0
1 130 47 0
1 -130 -47 0
1 46 105 0
1 -46 -105 0
1 29 76 0
1 -29 -76 0
1 67 51 0
1 -67 -51 0
1 25 51 0
1 -25 -51 0
1 48 34 0
1 -48 -34 0
1 81 13 0
1 -81 -13 0
1 46 53 0
1 -46 -53 0
1 132 15 0
1 -132 -15 0
1 21 76 0
1 -21 -76 0
1 82 118 0
1 -82 -118 0
1 122 14 0
1 -122 -14 0
1 95 112 0
1 -95 -112 0
1 2 35 0
1 -2 -35 0
1 112 116 0
1 -112 -116 0
1 29 115 0
1 -29 -115 0
1 40 34 0
1 -40 -34 0
1 53 25 0
1 -53 -25 0
1 32 96 0
1 -32 -96 0
1 97 15 0
1 -97 -15 0
1 37 76 0
1 -37 -76 0
1 130 76 0
1 -130 -76 0
1 127 32 0
1 -127 -32 0
1 124 55 0
1 -124 -55 0
1 7 84 0
1 -7 -84 0
1 108 55 0
1 -108 -55 0
1 71 39 0
1 -71 -39 0
1 88 27 0
1 -88 -27 0
1 108 136 0
1 -108 -136 0
1 26 39 0
1 -26 -39 0
1 21 123 0
1 -21 -123 0
1 89 52 0
1 -89 -52 0
1 127 81 0
1 -127 -81 0
1 93 20 0
1 -93 -20 0
1 58 28 0
1 -58 -28 0
1 115 1 0
1 -115 -1 0
1 94 132 0
1 -94 -132 0
1 5 105 0
1 -5 -105 0
1 10 128 0
1 -10 -128 0
1 108 105 0
1 -108 -105 0
1 71 14 0
1 -71 -14 0
1 98 36 0
1 -98 -36 0
1 106 127 0
1 -106 -127 0
1 117 74 0
1 -117 -74 0
1 21 19 0
1 -21 -19 0
1 79 58 0
1 -79 -58 0
1 130 73 0
1 -130 -73 0
1 130 99 0
1 -130 -99 0
1 129 55 0
1 -129 -55 0
1 124 1 0
1 -124 -1 0
1 14 17 0
1 -14 -17 0
1 113 48 0
1 -113 -48 0
1 86 70 0
1 -86 -70 0
1 106 128 0
1 -106 -128 0
1 3 19 0
1 -3 -19 0
1 3 109 0
1 -3 -109 0
1 106 44 0
1 -106 -44 0
1 111 42 0
1 -111 -42 0
1 5 41 0
1 -5 -41 0
1 48 84 0
1 -48 -84 0
1 1 36 0
1 -1 -36 0
1 107 120 0
1 -107 -120 0
1 133 18 0
1 -133 -18 0
1 53 61 0
1 -53 -61 0
1 72 23 0
1 -72 -23 0
1 112 28 0
1 -112 -28 0
1 115 3 0
1 -115 -3 0
1 48 65 0
1 -48 -65 0
1 29 78 0
1 -29 -78 0
1 57 119 0
1 -57 -119 0
1 133 73 0
1 -133 -73 0
1 117 8 0
1 -117 -8 0
1 79 136 0
1 -79 -136 0
1 3 123 0
1 -3 -123 0
1 63 99 0
1 -63 -99 0
1 124 64 0
1 -124 -64 0
1 72 8 0
1 -72 -8 0
1 12 4 0
1 -12 -4 0
1 10 16 0
1 -10 -16 0
1 12 76 0
1 -12 -76 0
1 79 129 0
1 -79 -129 0
1 57 26 0
1 -57 -26 0
1 78 18 0
1 -78 -18 0
1 81 55 0
1 -81 -55 0
1 24 116 0
1 -24 -116 0
1 53 20 0
1 -53 -20 0
1 122 11 0
1 -122 -11 0
1 94 62 0
1 -94 -62 0
1 129 31 0
1 -129 -31 0
1 78 122 0
1 -78 -122 0
1 62 90 0
1 -62 -90 0
1 40 74 0
1 -40 -74 0
1 59 64 0
1 -59 -64 0
1 98 30 0
1 -98 -30 0
1 93 56 0
1 -93 -56 0
1 122 114 0
1 -122 -114 0
1 80 83 0
1 -80 -83 0
1 138 74 0
1 -138 -74 0
1 69 37 0
1 -69 -37 0
1 24 72 0
1 -24 -72 0
1 107 33 0
1 -107 -33 0
1 91 120 0
1 -91 -120 0
1 47 27 0
1 -47 -27 0
1 138 84 0
1 -138 -84 0
1 112 34 0
1 -112 -34 0
1 93 59 0
1 -93 -59 0
1 95 102 0
1 -95 -102 0
1 130 72 0
1 -130 -72 0
1 111 123 0
1 -111 -123 0
1 65 34 0
1 -65 -34 0
1 71 123 0
1 -71 -123 0
1 124 99 0
1 -124 -99 0
1 49 42 0
1 -49 -42 0
1 5 52 0
1 -5 -52 0
1 40 95 0
1 -40 -95 0
1 3 91 0
1 -3 -91 0
1 56 82 0
1 -56 -82 0
1 109 73 0
1 -109 -73 0
1 105 55 0
1 -105 -55 0
1 33 99 0
1 -33 -99 0
1 138 30 0
1 -138 -30 0
1 70 34 0
1 -70 -34 0
1 89 4 0
1 -89 -4 0
1 51 4 0
1 -51 -4 0
1 7 37 0
1 -7 -37 0
1 22 16 0
1 -22 -16 0
1 75 8 0
1 -75 -8 0
1 122 133 0
1 -122 -133 0
1 60 8 0
1 -60 -8 0
1 135 91 0
1 -135 -91 0
1 121 110 0
1 -121 -110 0
1 133 31 0
1 -133 -31 0
1 36 34 0
1 -36 -34 0
1 55 4 0
1 -55 -4 0
1 38 27 0
1 -38 -27 0
1 115 11 0
1 -115 -11 0
1 104 55 0
1 -104 -55 0
1 61 34 0
1 -61 -34 0
1 114 84 0
1 -114 -84 0
1 140 70 0
1 -140 -70 0
1 13 137 0
1 -13 -137 0
1 63 111 0
1 -63 -111 0
1 108 104 0
1 -108 -104 0
1 74 73 0
1 -74 -73 0
1 103 17 0
1 -103 -17 0
1 66 51 0
1 -66 -51 0
1 119 109 0
1 -119 -109 0
1 19 42 0
1 -19 -42 0
1 66 1 0
1 -66 -1 0
1 53 15 0
1 -53 -15 0
1 30 8 0
1 -30 -8 0
1 105 38 0
1 -105 -38 0
1 106 10 0
1 -106 -10 0
1 127 15 0
1 -127 -15 0
1 72 44 0
1 -72 -44 0
1 130 36 0
1 -130 -36 0
1 11 109 0
1 -11 -109 0
1 103 120 0
1 -103 -120 0
1 29 2 0
1 -29 -2 0
1 55 111 0
1 -55 -111 0
1 75 76 0
1 -75 -76 0
1 138 20 0
1 -138 -20 0
1 21 16 0
1 -21 -16 0
1 134 107 0
1 -134 -107 0
1 83 4 0
1 -83 -4 0
1 106 101 0
1 -106 -101 0
1 135 96 0
1 -135 -96 0
1 48 131 0
1 -48 -131 0
1 1 83 0
1 -1 -83 0
1 40 117 0
1 -40 -117 0
1 80 105 0
1 -80 -105 0
1 78 49 0
1 -78 -49 0
1 46 100 0
1 -46 -100 0
1 105 37 0
1 -105 -37 0
1 79 120 0
1 -79 -120 0
1 56 41 0
1 -56 -41 0
1 140 68 0
1 -140 -68 0
1 89 126 0
1 -89 -126 0
1 10 63 0
1 -10 -63 0
1 10 103 0
1 -10 -103 0
1 14 45 0
1 -14 -45 0
1 35 20 0
1 -35 -20 0
1 109 16 0
1 -109 -16 0
1 117 50 0
1 -117 -50 0
1 93 72 0
1 -93 -72 0
1 99 64 0
1 -99 -64 0
1 21 126 0
1 -21 -126 0
1 5 133 0
1 -5 -133 0
1 24 21 0
1 -24 -21 0
1 92 114 0
1 -92 -114 0
1 37 111 0
1 -37 -111 0
1 107 118 0
1 -107 -118 0
1 5 18 0
1 -5 -18 0
1 59 85 0
1 -59 -85 0
1 1 22 0
1 -1 -22 0
1 56 136 0
1 -56 -136 0
1 78 114 0
1 -78 -114 0
1 112 21 0
1 -112 -21 0
1 112 73 0
1 -112 -73 0
1 84 39 0
1 -84 -39 0
1 13 96 0
1 -13 -96 0
1 65 30 0
1 -65 -30 0
1 95 118 0
1 -95 -118 0
1 60 99 0
1 -60 -99 0
1 61 28 0
1 -61 -28 0
1 33 120 0
1 -33 -120 0
1 56 87 0
1 -56 -87 0
1 5 62 0
1 -5 -62 0
1 94 1 0
1 -94 -1 0
1 128 43 0
1 -128 -43 0
1 94 121 0
1 -94 -121 0
1 93 105 0
1 -93 -105 0
1 93 13 0
1 -93 -13 0
1 134 25 0
1 -134 -25 0
1 67 27 0
1 -67 -27 0
1 28 47 0
1 -28 -47 0
1 56 129 0
1 -56 -129 0
1 113 1 0
1 -113 -1 0
1 78 137 0
1 -78 -137 0
1 90 131 0
1 -90 -131 0
1 74 122 0
1 -74 -122 0
1 100 61 0
1 -100 -61 0
1 136 133 0
1 -136 -133 0
1 101 70 0
1 -101 -70 0
1 71 132 0
1 -71 -132 0
1 110 41 0
1 -110 -41 0
1 115 83 0
1 -115 -83 0
1 2 26 0
1 -2 -26 0
1 31 47 0
1 -31 -47 0
1 3 133 0
1 -3 -133 0
1 108 59 0
1 -108 -59 0
1 30 133 0
1 -30 -133 0
1 40 26 0
1 -40 -26 0
1 97 96 0
1 -97 -96 0
1 24 90 0
1 -24 -90 0
1 12 8 0
1 -12 -8 0
1 121 84 0
1 -121 -84 0
1 95 11 0
1 -95 -11 0
1 107 77 0
1 -107 -77 0
1 54 28 0
1 -54 -28 0
1 79 98 0
1 -79 -98 0
1 65 91 0
1 -65 -91 0
1 11 111 0
1 -11 -111 0
1 44 84 0
1 -44 -84 0
1 2 85 0
1 -2 -85 0
1 97 116 0
1 -97 -116 0
1 7 17 0
1 -7 -17 0
1 140 117 0
1 -140 -117 0
1 48 68 0
1 -48 -68 0
1 105 133 0
1 -105 -133 0
1 95 91 0
1 -95 -91 0
1 84 42 0
1 -84 -42 0
1 92 28 0
1 -92 -28 0
1 93 25 0
1 -93 -25 0
1 29 98 0
1 -29 -98 0
1 95 1 0
1 -95 -1 0
1 62 104 0
1 -62 -104 0
1 97 110 0
1 -97 -110 0
1 112 91 0
1 -112 -91 0
1 127 72 0
1 -127 -72 0
1 127 137 0
1 -127 -137 0
1 140 11 0
1 -140 -11 0
1 44 55 0
1 -44 -55 0
1 83 31 0
1 -83 -31 0
1 10 15 0
1 -10 -15 0
1 25 15 0
1 -25 -15 0
1 138 28 0
1 -138 -28 0
1 107 26 0
1 -107 -26 0
1 40 42 0
1 -40 -42 0
1 116 38 0
1 -116 -38 0
1 54 91 0
1 -54 -91 0
1 67 136 0
1 -67 -136 0
1 78 30 0
1 -78 -30 0
1 57 90 0
1 -57 -90 0
1 62 65 0
1 -62 -65 0
1 24 81 0
1 -24 -81 0
1 94 72 0
1 -94 -72 0
1 134 1 0
1 -134 -1 0
1 95 21 0
1 -95 -21 0
1 30 84 0
1 -30 -84 0
1 117 35 0
1 -117 -35 0
1 122 136 0
1 -122 -136 0
1 134 56 0
1 -134 -56 0
1 104 64 0
1 -104 -64 0
1 97 36 0
1 -97 -36 0
1 40 126 0
1 -40 -126 0
1 37 83 0
1 -37 -83 0
1 59 6 0
1 -59 -6 0
1 63 55 0
1 -63 -55 0
1 24 86 0
1 -24 -86 0
1 3 42 0
1 -3 -42 0
1 12 138 0
1 -12 -138 0
1 54 126 0
1 -54 -126 0
1 130 8 0
1 -130 -8 0
1 11 137 0
1 -11 -137 0
1 113 32 0
1 -113 -32 0
1 133 16 0
1 -133 -16 0
1 63 16 0
1 -63 -16 0
1 117 127 0
1 -117 -127 0
1 79 62 0
1 -79 -62 0
1 102 52 0
1 -102 -52 0
1 119 45 0
1 -119 -45 0
1 78 133 0
1 -78 -133 0
1 1 129 0
1 -1 -129 0
1 59 9 0
1 -59 -9 0
1 57 91 0
1 -57 -91 0
1 89 8 0
1 -89 -8 0
1 28 52 0
1 -28 -52 0
1 46 85 0
1 -46 -85 0
1 92 18 0
1 -92 -18 0
1 54 102 0
1 -54 -102 0
1 103 45 0
1 -103 -45 0
1 92 2 0
1 -92 -2 0
1 23 27 0
1 -23 -27 0
1 74 63 0
1 -74 -63 0
1 128 114 0
1 -128 -114 0
1 14 27 0
1 -14 -27 0
1 13 28 0
1 -13 -28 0
1 60 54 0
1 -60 -54 0
1 51 104 0
1 -51 -104 0
1 48 8 0
1 -48 -8 0
1 69 41 0
1 -69 -41 0
1 78 68 0
1 -78 -68 0
1 7 44 0
1 -7 -44 0
1 130 39 0
1 -130 -39 0
1 45 23 0
1 -45 -23 0
1 136 120 0
1 -136 -120 0
1 60 1 0
1 -60 -1 0
1 129 4 0
1 -129 -4 0
1 117 136 0
1 -117 -136 0
1 87 123 0
1 -87 -123 0
1 90 47 0
1 -90 -47 0
1 66 18 0
1 -66 -18 0
1 67 73 0
1 -67 -73 0
1 81 128 0
1 -81 -128 0
1 58 67 0
1 -58 -67 0
1 48 16 0
1 -48 -16 0
1 29 13 0
1 -29 -13 0
1 62 111 0
1 -62 -111 0
1 91 55 0
1 -91 -55 0
1 119 6 0
1 -119 -6 0
1 113 114 0
1 -113 -114 0
1 35 15 0
1 -35 -15 0
1 68 61 0
1 -68 -61 0
1 46 108 0
1 -46 -108 0
1 124 135 0
1 -124 -135 0
